Route #1: 75 93
Route #2: 79 11 85 30
Route #3: 38 47 26 48 96 64 34
Route #4: 87 37 6 49 14
Route #5: 1 70 54
Route #6: 31 46 35
Route #7: 7 2 45 43 29 36 72 57
Route #8: 71 62 99 98 89
Route #9: 19 97 27
Route #10: 32 33 53 73 95 24
Route #11: 81 51 83
Route #12: 92 9 86
Route #13: 28 42 78 65 25
Route #14: 5 12 58
Route #15: 40 88 67 44
Route #16: 8 17
Route #17: 63 77 3
Route #18: 39 10 18
Route #19: 74 13 4
Route #20: 68 90 84 66
Route #21: 80 94 56 21
Route #22: 69 16 55 76
Route #23: 15 22 41 20
Route #24: 100 61 23
Route #25: 82 60 59
Route #26: 50 91 52
Cost 27591.0000
Time 16.0006